Route #1: 53 58 40 26 12 80 68 3 77 76 50 1 69
Route #2: 21 54 55 25 24 29 79 78 34 35 65 71 9 81 33 51
Route #3: 73 72 74 22 41 75 56 23 67 39 4
Route #4: 13 2 57 15 43 42 87 97 92 59 99 95 94
Route #5: 93 85 91 14 38 44 86 16 61
Route #6: 5 60 83 45 8 82 48 47 36 49 64 7
Route #7: 46 19 11 63 90 32 66 20 30 70 10 62 88 31
Route #8: 89 6 96 37 98 100 17 84 18 52 27 28
Cost 927
